experiment/data/hgs-res/Vrp-Set-P-n65/Vrp-Set-P-n65-hgs/0.hgs1.tour
Route #1: 33 63 23 56 24 49 16
Route #2: 62 22 64 42 41 43 1
Route #3: 30 21 61 28 2
Route #4: 48 47 36 60 20 37 5
Route #5: 4 27 52 46 34
Route #6: 8 35 19 54 13 57 15 29 45
Route #7: 14 59 11 53 7
Route #8: 26 58 38 10 31 39
Route #9: 32 50 18 55 25 9 12
Route #10: 6 51 3 44 40 17
Cost 795.664
